c This is QMaxSAT 2017 based on 14.07
c This is Glucose 3.0
c This is MiniSat 2.2.0
c WARNING: for repeatability, setting FPU to use double precision
c card = mrwto, comp = 0, pmodel = 0, narr = 30, mct = 76, verb = 0
cr firstCPXsol 0 0 0
c top = 189219
c |  Number of variables:    22050                                            |
c |  Number of clauses:      1853835                                          |
c |  Weight of hard clauses: 189219                                           |
c |  Number of soft clauses: 301500                                           |
c |  Number of unit soft clauses: 0                                           |
c |  Maximum Cardinality (by unit): 9793380      (0           )               |
c last restart ## conflicts  :  1 7150 
o 618 | cpuTime 3.35082 s
c Sum of weights = 326446
c A number of soft clauses remained = 10050
c MRWTO encoding for Pseudo-Boolean Constraints
c sizeMax=618
c No.0 Divisor=9	generated by pow1
c No.1 Divisor=9	generated by pow1
c No.2 Divisor=9	generated by pow1
c p0= 9	p1= 9	p2= 9	
c number of digits = 4
c linkingVar[0].size = 9, linkingVar[1].size = 9, linkingVar[2].size = 8, linkingVar[3].size = 1, 
c Pseudo-Boolean Constraints: 172165 variables and 1236123 clauses
c Sum of weights = 326446
c A number of soft clauses remained = 10050
c MRWTO encoding for Pseudo-Boolean Constraints
c sizeMax=618
c No.0 Divisor=9	generated by pow1
c No.1 Divisor=9	generated by pow1
c No.2 Divisor=9	generated by pow1
c p0= 9	p1= 9	p2= 9	
c number of digits = 4
c linkingVar[0].size = 9, linkingVar[1].size = 9, linkingVar[2].size = 8, linkingVar[3].size = 1, 
c Pseudo-Boolean Constraints: 172165 variables and 1236123 clauses
c Sum of weights = 326446
c A number of soft clauses remained = 10050
c MRWTO encoding for Pseudo-Boolean Constraints
c sizeMax=618
c No.0 Divisor=9	generated by pow1
c No.1 Divisor=9	generated by pow1
c No.2 Divisor=9	generated by pow1
c p0= 9	p1= 9	p2= 9	
c number of digits = 4
c linkingVar[0].size = 9, linkingVar[1].size = 9, linkingVar[2].size = 8, linkingVar[3].size = 1, 
c Pseudo-Boolean Constraints: 172165 variables and 1236123 clauses
c Sum of weights = 326446
c A number of soft clauses remained = 10050
c MRWTO encoding for Pseudo-Boolean Constraints
c sizeMax=618
c No.0 Divisor=9	generated by pow1
c No.1 Divisor=9	generated by pow1
c No.2 Divisor=9	generated by pow1
c p0= 9	p1= 9	p2= 9	
c number of digits = 4
c linkingVar[0].size = 9, linkingVar[1].size = 9, linkingVar[2].size = 8, linkingVar[3].size = 1, 
c Pseudo-Boolean Constraints: 172165 variables and 1236123 clauses
c Sum of weights = 326446
c A number of soft clauses remained = 10050
c MRWTO encoding for Pseudo-Boolean Constraints
c sizeMax=618
c No.0 Divisor=9	generated by pow1
c No.1 Divisor=9	generated by pow1
c No.2 Divisor=9	generated by pow1
c p0= 9	p1= 9	p2= 9	
c number of digits = 4
c linkingVar[0].size = 9, linkingVar[1].size = 9, linkingVar[2].size = 8, linkingVar[3].size = 1, 
c Pseudo-Boolean Constraints: 172165 variables and 1236123 clauses
c Sum of weights = 326446
c A number of soft clauses remained = 10050
c MRWTO encoding for Pseudo-Boolean Constraints
c sizeMax=618
c No.0 Divisor=9	generated by pow1
c No.1 Divisor=9	generated by pow1
c No.2 Divisor=9	generated by pow1
c p0= 9	p1= 9	p2= 9	
c number of digits = 4
c linkingVar[0].size = 9, linkingVar[1].size = 9, linkingVar[2].size = 8, linkingVar[3].size = 1, 
c Pseudo-Boolean Constraints: 172165 variables and 1236123 clauses
c Sum of weights = 326446
c A number of soft clauses remained = 10050
c MRWTO encoding for Pseudo-Boolean Constraints
c sizeMax=618
c No.0 Divisor=9	generated by pow1
c No.1 Divisor=9	generated by pow1
c No.2 Divisor=9	generated by pow1
c p0= 9	p1= 9	p2= 9	
c number of digits = 4
c linkingVar[0].size = 9, linkingVar[1].size = 9, linkingVar[2].size = 8, linkingVar[3].size = 1, 
c Pseudo-Boolean Constraints: 172165 variables and 1236123 clauses
c Sum of weights = 326446
c A number of soft clauses remained = 10050
c MRWTO encoding for Pseudo-Boolean Constraints
c sizeMax=618
c No.0 Divisor=9	generated by pow1
c No.1 Divisor=9	generated by pow1
c No.2 Divisor=9	generated by pow1
c p0= 9	p1= 9	p2= 9	
c number of digits = 4
c linkingVar[0].size = 9, linkingVar[1].size = 9, linkingVar[2].size = 8, linkingVar[3].size = 1, 
c Pseudo-Boolean Constraints: 172165 variables and 1236123 clauses
c Sum of weights = 326446
c A number of soft clauses remained = 10050
c MRWTO encoding for Pseudo-Boolean Constraints
c sizeMax=618
c No.0 Divisor=9	generated by pow1
c No.1 Divisor=9	generated by pow1
c No.2 Divisor=9	generated by pow1
c p0= 9	p1= 9	p2= 9	
c number of digits = 4
c linkingVar[0].size = 9, linkingVar[1].size = 9, linkingVar[2].size = 8, linkingVar[3].size = 1, 
c Pseudo-Boolean Constraints: 172165 variables and 1236123 clauses
c Sum of weights = 326446
c A number of soft clauses remained = 10050
c MRWTO encoding for Pseudo-Boolean Constraints
c sizeMax=618
c No.0 Divisor=9	generated by pow1
c No.1 Divisor=9	generated by pow1
c No.2 Divisor=9	generated by pow1
c p0= 9	p1= 9	p2= 9	
c number of digits = 4
c linkingVar[0].size = 9, linkingVar[1].size = 9, linkingVar[2].size = 8, linkingVar[3].size = 1, 
c Pseudo-Boolean Constraints: 172165 variables and 1236123 clauses
c Sum of weights = 326446
c A number of soft clauses remained = 10050
c MRWTO encoding for Pseudo-Boolean Constraints
c sizeMax=618
c No.0 Divisor=9	generated by pow1
c No.1 Divisor=9	generated by pow1
c No.2 Divisor=9	generated by pow1
c p0= 9	p1= 9	p2= 9	
c number of digits = 4
c linkingVar[0].size = 9, linkingVar[1].size = 9, linkingVar[2].size = 8, linkingVar[3].size = 1, 
c Pseudo-Boolean Constraints: 172165 variables and 1236123 clauses
c Sum of weights = 326446
c A number of soft clauses remained = 10050
c MRWTO encoding for Pseudo-Boolean Constraints
c sizeMax=618
c No.0 Divisor=9	generated by pow1
c No.1 Divisor=9	generated by pow1
c No.2 Divisor=9	generated by pow1
c p0= 9	p1= 9	p2= 9	
c number of digits = 4
c linkingVar[0].size = 9, linkingVar[1].size = 9, linkingVar[2].size = 8, linkingVar[3].size = 1, 
c Pseudo-Boolean Constraints: 172165 variables and 1236123 clauses
c Sum of weights = 326446
c A number of soft clauses remained = 10050
c MRWTO encoding for Pseudo-Boolean Constraints
c sizeMax=618
c No.0 Divisor=9	generated by pow1
c No.1 Divisor=9	generated by pow1
c No.2 Divisor=9	generated by pow1
c p0= 9	p1= 9	p2= 9	
c number of digits = 4
c linkingVar[0].size = 9, linkingVar[1].size = 9, linkingVar[2].size = 8, linkingVar[3].size = 1, 
c Pseudo-Boolean Constraints: 172165 variables and 1236123 clauses
c Sum of weights = 326446
c A number of soft clauses remained = 10050
c MRWTO encoding for Pseudo-Boolean Constraints
c sizeMax=618
c No.0 Divisor=9	generated by pow1
c No.1 Divisor=9	generated by pow1
c No.2 Divisor=9	generated by pow1
c p0= 9	p1= 9	p2= 9	
c number of digits = 4
c linkingVar[0].size = 9, linkingVar[1].size = 9, linkingVar[2].size = 8, linkingVar[3].size = 1, 
c Pseudo-Boolean Constraints: 172165 variables and 1236123 clauses
c Sum of weights = 326446
c A number of soft clauses remained = 10050
c MRWTO encoding for Pseudo-Boolean Constraints
c sizeMax=618
c No.0 Divisor=9	generated by pow1
c No.1 Divisor=9	generated by pow1
c No.2 Divisor=9	generated by pow1
c p0= 9	p1= 9	p2= 9	
c number of digits = 4
c linkingVar[0].size = 9, linkingVar[1].size = 9, linkingVar[2].size = 8, linkingVar[3].size = 1, 
c Pseudo-Boolean Constraints: 172165 variables and 1236123 clauses
c Sum of weights = 326446
c A number of soft clauses remained = 10050
c MRWTO encoding for Pseudo-Boolean Constraints
c sizeMax=618
c No.0 Divisor=9	generated by pow1
c No.1 Divisor=9	generated by pow1
c No.2 Divisor=9	generated by pow1
c p0= 9	p1= 9	p2= 9	
c number of digits = 4
c linkingVar[0].size = 9, linkingVar[1].size = 9, linkingVar[2].size = 8, linkingVar[3].size = 1, 
c Pseudo-Boolean Constraints: 172165 variables and 1236123 clauses
c Sum of weights = 326446
c A number of soft clauses remained = 10050
c MRWTO encoding for Pseudo-Boolean Constraints
c sizeMax=618
c No.0 Divisor=9	generated by pow1
c No.1 Divisor=9	generated by pow1
c No.2 Divisor=9	generated by pow1
c p0= 9	p1= 9	p2= 9	
c number of digits = 4
c linkingVar[0].size = 9, linkingVar[1].size = 9, linkingVar[2].size = 8, linkingVar[3].size = 1, 
c Pseudo-Boolean Constraints: 172165 variables and 1236123 clauses
c Sum of weights = 326446
c A number of soft clauses remained = 10050
c MRWTO encoding for Pseudo-Boolean Constraints
c sizeMax=618
c No.0 Divisor=9	generated by pow1
c No.1 Divisor=9	generated by pow1
c No.2 Divisor=9	generated by pow1
c p0= 9	p1= 9	p2= 9	
c number of digits = 4
c linkingVar[0].size = 9, linkingVar[1].size = 9, linkingVar[2].size = 8, linkingVar[3].size = 1, 
c Pseudo-Boolean Constraints: 172165 variables and 1236123 clauses
c Sum of weights = 326446
c A number of soft clauses remained = 10050
c MRWTO encoding for Pseudo-Boolean Constraints
c sizeMax=618
c No.0 Divisor=9	generated by pow1
c No.1 Divisor=9	generated by pow1
c No.2 Divisor=9	generated by pow1
c p0= 9	p1= 9	p2= 9	
c number of digits = 4
c linkingVar[0].size = 9, linkingVar[1].size = 9, linkingVar[2].size = 8, linkingVar[3].size = 1, 
c Pseudo-Boolean Constraints: 172165 variables and 1236123 clauses
c Sum of weights = 326446
c A number of soft clauses remained = 10050
c MRWTO encoding for Pseudo-Boolean Constraints
c sizeMax=618
c No.0 Divisor=9	generated by pow1
c No.1 Divisor=9	generated by pow1
c No.2 Divisor=9	generated by pow1
c p0= 9	p1= 9	p2= 9	
c number of digits = 4
c linkingVar[0].size = 9, linkingVar[1].size = 9, linkingVar[2].size = 8, linkingVar[3].size = 1, 
c Pseudo-Boolean Constraints: 172165 variables and 1236123 clauses
c Sum of weights = 326446
c A number of soft clauses remained = 10050
c MRWTO encoding for Pseudo-Boolean Constraints
c sizeMax=618
c No.0 Divisor=9	generated by pow1
c No.1 Divisor=9	generated by pow1
c No.2 Divisor=9	generated by pow1
c p0= 9	p1= 9	p2= 9	
c number of digits = 4
c linkingVar[0].size = 9, linkingVar[1].size = 9, linkingVar[2].size = 8, linkingVar[3].size = 1, 
c Pseudo-Boolean Constraints: 172165 variables and 1236123 clauses
c Sum of weights = 326446
c A number of soft clauses remained = 10050
c MRWTO encoding for Pseudo-Boolean Constraints
c sizeMax=618
c No.0 Divisor=9	generated by pow1
c No.1 Divisor=9	generated by pow1
c No.2 Divisor=9	generated by pow1
c p0= 9	p1= 9	p2= 9	
c number of digits = 4
c linkingVar[0].size = 9, linkingVar[1].size = 9, linkingVar[2].size = 8, linkingVar[3].size = 1, 
c Pseudo-Boolean Constraints: 172165 variables and 1236123 clauses
c Sum of weights = 326446
c A number of soft clauses remained = 10050
c MRWTO encoding for Pseudo-Boolean Constraints
c sizeMax=618
c No.0 Divisor=9	generated by pow1
c No.1 Divisor=9	generated by pow1
c No.2 Divisor=9	generated by pow1
c p0= 9	p1= 9	p2= 9	
c number of digits = 4
c linkingVar[0].size = 9, linkingVar[1].size = 9, linkingVar[2].size = 8, linkingVar[3].size = 1, 
c Pseudo-Boolean Constraints: 172165 variables and 1236123 clauses
c Sum of weights = 326446
c A number of soft clauses remained = 10050
c MRWTO encoding for Pseudo-Boolean Constraints
c sizeMax=618
c No.0 Divisor=9	generated by pow1
c No.1 Divisor=9	generated by pow1
c No.2 Divisor=9	generated by pow1
c p0= 9	p1= 9	p2= 9	
c number of digits = 4
c linkingVar[0].size = 9, linkingVar[1].size = 9, linkingVar[2].size = 8, linkingVar[3].size = 1, 
c Pseudo-Boolean Constraints: 172165 variables and 1236123 clauses
c Sum of weights = 326446
c A number of soft clauses remained = 10050
c MRWTO encoding for Pseudo-Boolean Constraints
c sizeMax=618
c No.0 Divisor=9	generated by pow1
c No.1 Divisor=9	generated by pow1
c No.2 Divisor=9	generated by pow1
c p0= 9	p1= 9	p2= 9	
c number of digits = 4
c linkingVar[0].size = 9, linkingVar[1].size = 9, linkingVar[2].size = 8, linkingVar[3].size = 1, 
c Pseudo-Boolean Constraints: 172165 variables and 1236123 clauses
c Sum of weights = 326446
c A number of soft clauses remained = 10050
c MRWTO encoding for Pseudo-Boolean Constraints
c sizeMax=618
c No.0 Divisor=9	generated by pow1
c No.1 Divisor=9	generated by pow1
c No.2 Divisor=9	generated by pow1
c p0= 9	p1= 9	p2= 9	
c number of digits = 4
c linkingVar[0].size = 9, linkingVar[1].size = 9, linkingVar[2].size = 8, linkingVar[3].size = 1, 
c Pseudo-Boolean Constraints: 172165 variables and 1236123 clauses
c Sum of weights = 326446
c A number of soft clauses remained = 10050
c MRWTO encoding for Pseudo-Boolean Constraints
c sizeMax=618
c No.0 Divisor=9	generated by pow1
c No.1 Divisor=9	generated by pow1
c No.2 Divisor=9	generated by pow1
c p0= 9	p1= 9	p2= 9	
c number of digits = 4
c linkingVar[0].size = 9, linkingVar[1].size = 9, linkingVar[2].size = 8, linkingVar[3].size = 1, 
c Pseudo-Boolean Constraints: 172165 variables and 1236123 clauses
c Sum of weights = 326446
c A number of soft clauses remained = 10050
c MRWTO encoding for Pseudo-Boolean Constraints
c sizeMax=618
c No.0 Divisor=9	generated by pow1
c No.1 Divisor=9	generated by pow1
c No.2 Divisor=9	generated by pow1
c p0= 9	p1= 9	p2= 9	
c number of digits = 4
c linkingVar[0].size = 9, linkingVar[1].size = 9, linkingVar[2].size = 8, linkingVar[3].size = 1, 
c Pseudo-Boolean Constraints: 172165 variables and 1236123 clauses
c Sum of weights = 326446
c A number of soft clauses remained = 10050
c MRWTO encoding for Pseudo-Boolean Constraints
c sizeMax=618
c No.0 Divisor=9	generated by pow1
c No.1 Divisor=9	generated by pow1
c No.2 Divisor=9	generated by pow1
c p0= 9	p1= 9	p2= 9	
c number of digits = 4
c linkingVar[0].size = 9, linkingVar[1].size = 9, linkingVar[2].size = 8, linkingVar[3].size = 1, 
c Pseudo-Boolean Constraints: 172165 variables and 1236123 clauses
c Sum of weights = 326446
c A number of soft clauses remained = 10050
c MRWTO encoding for Pseudo-Boolean Constraints
c sizeMax=618
c No.0 Divisor=9	generated by pow1
c No.1 Divisor=9	generated by pow1
c No.2 Divisor=9	generated by pow1
c p0= 9	p1= 9	p2= 9	
c number of digits = 4
c linkingVar[0].size = 9, linkingVar[1].size = 9, linkingVar[2].size = 8, linkingVar[3].size = 1, 
c Pseudo-Boolean Constraints: 172165 variables and 1236123 clauses
c last restart ## conflicts  :  205 71955 
o 369 | cpuTime 17.274 s
c last restart ## conflicts  :  298 63957 
o 356 | cpuTime 45.2909 s
c last restart ## conflicts  :  513 88594 
o 318 | cpuTime 81.2199 s
c last restart ## conflicts  :  228 59049 
o 223 | cpuTime 120.897 s
c last restart ## conflicts  :  577 25591 
o 218 | cpuTime 291.17 s
c last restart ## conflicts  :  1541 63328 
o 206 | cpuTime 344.461 s
c last restart ## conflicts  :  287 37515 
o 197 | cpuTime 382.805 s
c last restart ## conflicts  :  235 46648 
o 195 | cpuTime 489.234 s
c last restart ## conflicts  :  341 40182 
o 193 | cpuTime 700.162 s
c last restart ## conflicts  :  294 89687 
o 183 | cpuTime 758.486 s
c last restart ## conflicts  :  380 45718 
o 181 | cpuTime 800.225 s
c last restart ## conflicts  :  456 84378 
o 174 | cpuTime 1469.4 s
c last restart ## conflicts  :  495 82579 
o 173 | cpuTime 2405.95 s
s UNKNOWN
c Search is stopped by a limit (maybe time-limit)
cr positiVarArr: [ | 72(1->43) | 181(1->47) | 301(1->62) | 379(1->35) | 513(1->64) | 617(1->63) | 700(1->41) | 773(1->9) | 925(1->56) | 976(1->2) | 1102(1->23) | 1233(1->49) | 1335(1->46) | 1407(1->13) | 1530(1->31) | 1654(1->50) | 1738(1->29) | 1880(1->66) | 1991(1->72) | 2089(1->65) | 2199(1->70) | 2242(1->8) | 2371(1->32) | 2486(1->42) | 2568(1->19) | 2728(1->74) | 2797(1->38) | 2937(1->73) | 3045(1->76) | 3143(1->69) | 3239(2->60) | 3301(3->17) | 3416(4->27) | 3495(5->1) | 3595(6->1) | 3716(7->12) | 3863(8->54) | 3938(9->24) | 3995(10->1) | 4134(11->10) | 4268(12->39) | 4314(13->1) | 4487(14->48) | 4601(15->57) | 4693(16->44) | 4758(17->4) | 4884(18->25) | 4958(19->1) | 5043(20->1) | 5196(21->22) | 5285(22->6) | 5410(23->26) | 5462(24->1) | 5662(25->68) | 5744(26->45) | 5809(27->5) | 5907(28->1) | 6006(29->1) | 6097(30->1) | 6258(31->34) | 6328(32->1) | 6413(33->1) | 6567(34->28) | 6665(35->21) | 6735(36->1) | 6842(37->1) | 6948(38->1) | 7104(39->40) | 7150(40->1) | 7304(41->30) | 7364(42->1) | 7461(43->1) | 7592(44->3) | 7685(45->1) | 7799(46->1) | 7975(47->71) | 8045(48->36) | 8166(49->52) | 8278(50->59) | 8317(51->1) | 8482(52->53) | 8548(53->14) | 8676(54->37) | 8819(55->75) | 8904(56->55) | 9021(57->67) | 9066(58->7) | 9154(59->1) | 9330(60->61) | 9356(61->1) | 9474(62->1) | 9600(63->16) | 9740(64->51) | 9827(65->33) | 9874(66->1) | 9976(67->1) | 10096(68->1) | 10197(69->1) | 10339(70->20) | 10435(71->11) | 10587(72->58) | 10631(73->1) | 10757(74->18) | 10828(75->1) | 10964(76->15) | ]
cr the 1-th chain: [ 1->43->1 ] (#non-depot=1) {#cumul.=2}
cr the 2-th chain: [ 1->47->71->11->10->1 ] (#non-depot=4) {#cumul.=6}
cr the 3-th chain: [ 1->62->1 ] (#non-depot=1) {#cumul.=7}
cr the 4-th chain: [ 1->35->21->22->6->1 ] (#non-depot=4) {#cumul.=11}
cr the 5-th chain: [ 1->64->51->1 ] (#non-depot=2) {#cumul.=13}
cr the 6-th chain: [ 1->63->16->44->3->17->4->27->5->1 ] (#non-depot=8) {#cumul.=21}
cr the 7-th chain: [ 1->41->30->1 ] (#non-depot=2) {#cumul.=23}
cr the 8-th chain: [ 1->9->24->1 ] (#non-depot=2) {#cumul.=25}
cr the 9-th chain: [ 1->56->55->75->1 ] (#non-depot=3) {#cumul.=28}
cr the 10-th chain: [ 1->2->60->61->1 ] (#non-depot=3) {#cumul.=31}
cr the 11-th chain: [ 1->23->26->45->1 ] (#non-depot=3) {#cumul.=34}
cr the 12-th chain: [ 1->49->52->53->14->48->36->1 ] (#non-depot=6) {#cumul.=40}
cr the 13-th chain: [ 1->46->1 ] (#non-depot=1) {#cumul.=41}
cr the 14-th chain: [ 1->13->1 ] (#non-depot=1) {#cumul.=42}
cr the 15-th chain: [ 1->31->34->28->1 ] (#non-depot=3) {#cumul.=45}
cr the 16-th chain: [ 1->50->59->1 ] (#non-depot=2) {#cumul.=47}
cr the 17-th chain: [ 1->29->1 ] (#non-depot=1) {#cumul.=48}
cr the 18-th chain: [ 1->66->1 ] (#non-depot=1) {#cumul.=49}
cr the 19-th chain: [ 1->72->58->7->12->39->40->1 ] (#non-depot=6) {#cumul.=55}
cr the 20-th chain: [ 1->65->33->1 ] (#non-depot=2) {#cumul.=57}
cr the 21-th chain: [ 1->70->20->1 ] (#non-depot=2) {#cumul.=59}
cr the 22-th chain: [ 1->8->54->37->1 ] (#non-depot=3) {#cumul.=62}
cr the 23-th chain: [ 1->32->1 ] (#non-depot=1) {#cumul.=63}
cr the 24-th chain: [ 1->42->1 ] (#non-depot=1) {#cumul.=64}
cr the 25-th chain: [ 1->19->1 ] (#non-depot=1) {#cumul.=65}
cr the 26-th chain: [ 1->74->18->25->68->1 ] (#non-depot=4) {#cumul.=69}
cr the 27-th chain: [ 1->38->1 ] (#non-depot=1) {#cumul.=70}
cr the 28-th chain: [ 1->73->1 ] (#non-depot=1) {#cumul.=71}
cr the 29-th chain: [ 1->76->15->57->67->1 ] (#non-depot=4) {#cumul.=75}
cr the 30-th chain: [ 1->69->1 ] (#non-depot=1) {#cumul.=76}
c Latest Answer = 0 by 14 loops
c restarts              : 14628
c conflicts             : 2563011        (713 /sec)
c decisions             : 179962461      (0.00 % random) (50040 /sec)
c propagations          : 34885978355    (9700324 /sec)
c conflict literals     : 510609117      (26.22 % deleted)
c Memory used           : 4938.00 MB
c CPU time              : 3596.37 s
